98 36 11 38 50 13 71 91 24 26 57 83 7 39 96 25 63 86 15 42 34 52 49 20 54 76 18 77 88 79 17 6 27 31 23 30 46 95 75 1 94 8 81 82 45 74 4 64 28 16 69 66 0 67 21 92 35 87 40 72 84 80 3 19 90 22 51 58 10 14 32 37 70 61 68 41 48 60 97 53 33 73 78 85 93 89 2 62 56 44 43 47 5 99 55 29 9 65 12 59